Al256
1.0
  16.1557178497000002    0.0000000000000000    0.0000000000000000
   0.0000000000000000   16.1557178497000002    0.0000000000000000
   0.0000000000000000    0.0000000000000000   16.1557178497000002
Al
256
direct
  -0.0011544292557176    0.0009232768659870   -0.0067224020342975 Al
  -0.0011544292557176    0.0009232768659870    0.2432775979657024 Al
  -0.0011544292557176    0.0009232768659870    0.4932775979657025 Al
  -0.0011544292557176    0.0009232768659870    0.7432775979657025 Al
   0.0000527427949547    0.2510305574173873   -0.0062551060618119 Al
   0.0000527427949547    0.2510305574173873    0.2437448939381881 Al
   0.0000527427949547    0.2510305574173873    0.4937448939381880 Al
   0.0000527427949547    0.2510305574173873    0.7437448939381881 Al
  -0.0016708873585402    0.5025333759659308    0.0011690609656909 Al
  -0.0016708873585402    0.5025333759659308    0.2511690609656909 Al
  -0.0016708873585402    0.5025333759659308    0.5011690609656908 Al
  -0.0016708873585402    0.5025333759659308    0.7511690609656909 Al
  -0.0027383586925396    0.7555208110087701    0.0038633863987378 Al
  -0.0027383586925396    0.7555208110087701    0.2538633863987378 Al
  -0.0027383586925396    0.7555208110087701    0.5038633863987377 Al
  -0.0027383586925396    0.7555208110087701    0.7538633863987377 Al
   0.2467351452455258   -0.0004926159299850   -0.0078247902295229 Al
   0.2467351452455258   -0.0004926159299850    0.2421752097704771 Al
   0.2467351452455258   -0.0004926159299850    0.4921752097704771 Al
   0.2467351452455258   -0.0004926159299850    0.7421752097704771 Al
   0.2468877518100643    0.2517801029636367   -0.0154467354737109 Al
   0.2468877518100643    0.2517801029636367    0.2345532645262891 Al
   0.2468877518100643    0.2517801029636367    0.4845532645262891 Al
   0.2468877518100643    0.2517801029636367    0.7345532645262890 Al
   0.2432734837833263    0.5108273623376843    0.0081511671015444 Al
   0.2432734837833263    0.5108273623376843    0.2581511671015444 Al
   0.2432734837833263    0.5108273623376843    0.5081511671015444 Al
   0.2432734837833263    0.5108273623376843    0.7581511671015445 Al
   0.2485964559378585    0.7597950526974007    0.0058077922286243 Al
   0.2485964559378585    0.7597950526974007    0.2558077922286244 Al
   0.2485964559378585    0.7597950526974007    0.5058077922286244 Al
   0.2485964559378585    0.7597950526974007    0.7558077922286244 Al
   0.4979325985629993   -0.0058639819073351   -0.0053749104614607 Al
   0.4979325985629993   -0.0058639819073351    0.2446250895385393 Al
   0.4979325985629993   -0.0058639819073351    0.4946250895385393 Al
   0.4979325985629993   -0.0058639819073351    0.7446250895385393 Al
   0.4982902472092535    0.2357532556686712   -0.0115369778933549 Al
   0.4982902472092535    0.2357532556686712    0.2384630221066451 Al
   0.4982902472092535    0.2357532556686712    0.4884630221066451 Al
   0.4982902472092535    0.2357532556686712    0.7384630221066452 Al
   0.5079761179264745    0.5079567067198704    0.0366733167211736 Al
   0.5079761179264745    0.5079567067198704    0.2866733167211736 Al
   0.5079761179264745    0.5079567067198704    0.5366733167211735 Al
   0.5079761179264745    0.5079567067198704    0.7866733167211736 Al
   0.5047480309419027    0.7535089119421942    0.0098093392068756 Al
   0.5047480309419027    0.7535089119421942    0.2598093392068755 Al
   0.5047480309419027    0.7535089119421942    0.5098093392068755 Al
   0.5047480309419027    0.7535089119421942    0.7598093392068757 Al
   0.7515784714253131   -0.0067879473795045   -0.0039553855228594 Al
   0.7515784714253131   -0.0067879473795045    0.2460446144771405 Al
   0.7515784714253131   -0.0067879473795045    0.4960446144771405 Al
   0.7515784714253131   -0.0067879473795045    0.7460446144771405 Al
   0.7540274561414961    0.2424974929241565   -0.0054639126436490 Al
   0.7540274561414961    0.2424974929241565    0.2445360873563510 Al
   0.7540274561414961    0.2424974929241565    0.4945360873563510 Al
   0.7540274561414961    0.2424974929241565    0.7445360873563510 Al
   0.7500156355257223    0.4984684241491185    0.0056085034684900 Al
   0.7500156355257223    0.4984684241491185    0.2556085034684900 Al
   0.7500156355257223    0.4984684241491185    0.5056085034684901 Al
   0.7500156355257223    0.4984684241491185    0.7556085034684901 Al
   0.7516754663257652    0.7487496674475974    0.0093866309233550 Al
   0.7516754663257652    0.7487496674475974    0.2593866309233550 Al
   0.7516754663257652    0.7487496674475974    0.5093866309233550 Al
   0.7516754663257652    0.7487496674475974    0.7593866309233550 Al
  -0.0005671727445743    0.1260902518654579    0.1178310821641483 Al
  -0.0005671727445743    0.1260902518654579    0.3678310821641483 Al
  -0.0005671727445743    0.1260902518654579    0.6178310821641483 Al
  -0.0005671727445743    0.1260902518654579    0.8678310821641483 Al
  -0.0001853054163635    0.3761790095838765    0.1219747462594055 Al
  -0.0001853054163635    0.3761790095838765    0.3719747462594055 Al
  -0.0001853054163635    0.3761790095838765    0.6219747462594055 Al
  -0.0001853054163635    0.3761790095838765    0.8719747462594055 Al
  -0.0028072354954987    0.6294784279837005    0.1285006133612680 Al
  -0.0028072354954987    0.6294784279837005    0.3785006133612680 Al
  -0.0028072354954987    0.6294784279837005    0.6285006133612679 Al
  -0.0028072354954987    0.6294784279837005    0.8785006133612679 Al
  -0.0020866990849454    0.8805589798153391    0.1284812736936345 Al
  -0.0020866990849454    0.8805589798153391    0.3784812736936345 Al
  -0.0020866990849454    0.8805589798153391    0.6284812736936345 Al
  -0.0020866990849454    0.8805589798153391    0.8784812736936345 Al
   0.2463415916527021    0.1253288521214783    0.1141302553619362 Al
   0.2463415916527021    0.1253288521214783    0.3641302553619362 Al
   0.2463415916527021    0.1253288521214783    0.6141302553619362 Al
   0.2463415916527021    0.1253288521214783    0.8641302553619362 Al
   0.2499831582865076    0.3776593535226476    0.1101054749682895 Al
   0.2499831582865076    0.3776593535226476    0.3601054749682895 Al
   0.2499831582865076    0.3776593535226476    0.6101054749682895 Al
   0.2499831582865076    0.3776593535226476    0.8601054749682895 Al
   0.2457391849929623    0.6379660234303101    0.1330736722767375 Al
   0.2457391849929623    0.6379660234303101    0.3830736722767375 Al
   0.2457391849929623    0.6379660234303101    0.6330736722767375 Al
   0.2457391849929623    0.6379660234303101    0.8830736722767375 Al
   0.2498967170464652    0.8822288913460030    0.1294566525215138 Al
   0.2498967170464652    0.8822288913460030    0.3794566525215138 Al
   0.2498967170464652    0.8822288913460030    0.6294566525215137 Al
   0.2498967170464652    0.8822288913460030    0.8794566525215138 Al
   0.4977651511462274    0.1164647238815459    0.1177038428812545 Al
   0.4977651511462274    0.1164647238815459    0.3677038428812545 Al
   0.4977651511462274    0.1164647238815459    0.6177038428812545 Al
   0.4977651511462274    0.1164647238815459    0.8677038428812545 Al
   0.5016025558094945    0.3478859458081914    0.0979053570147955 Al
   0.5016025558094945    0.3478859458081914    0.3479053570147956 Al
   0.5016025558094945    0.3478859458081914    0.5979053570147955 Al
   0.5016025558094945    0.3478859458081914    0.8479053570147955 Al
   0.5067920054502651    0.6290822390122912    0.1416192305528736 Al
   0.5067920054502651    0.6290822390122912    0.3916192305528736 Al
   0.5067920054502651    0.6290822390122912    0.6416192305528735 Al
   0.5067920054502651    0.6290822390122912    0.8916192305528736 Al
   0.5034959520757369    0.8780068806298625    0.1318034611001970 Al
   0.5034959520757369    0.8780068806298625    0.3818034611001970 Al
   0.5034959520757369    0.8780068806298625    0.6318034611001969 Al
   0.5034959520757369    0.8780068806298625    0.8818034611001969 Al
   0.7528454544588766    0.1172084909831190    0.1201342898612867 Al
   0.7528454544588766    0.1172084909831190    0.3701342898612868 Al
   0.7528454544588766    0.1172084909831190    0.6201342898612867 Al
   0.7528454544588766    0.1172084909831190    0.8701342898612867 Al
   0.7528801280396029    0.3707400487202313    0.1222872600968350 Al
   0.7528801280396029    0.3707400487202313    0.3722872600968350 Al
   0.7528801280396029    0.3707400487202313    0.6222872600968350 Al
   0.7528801280396029    0.3707400487202313    0.8722872600968350 Al
   0.7504953964083486    0.6234568019761541    0.1349867651934937 Al
   0.7504953964083486    0.6234568019761541    0.3849867651934937 Al
   0.7504953964083486    0.6234568019761541    0.6349867651934937 Al
   0.7504953964083486    0.6234568019761541    0.8849867651934937 Al
   0.7521545221285078    0.8743219602718627    0.1326883790766804 Al
   0.7521545221285078    0.8743219602718627    0.3826883790766804 Al
   0.7521545221285078    0.8743219602718627    0.6326883790766803 Al
   0.7521545221285078    0.8743219602718627    0.8826883790766804 Al
   0.1228454778714922    0.0006780397281373    0.1173116209233196 Al
   0.1228454778714922    0.0006780397281373    0.3673116209233196 Al
   0.1228454778714922    0.0006780397281373    0.6173116209233196 Al
   0.1228454778714922    0.0006780397281373    0.8673116209233196 Al
   0.1245046035916514    0.2515431980238459    0.1150132348065063 Al
   0.1245046035916514    0.2515431980238459    0.3650132348065063 Al
   0.1245046035916514    0.2515431980238459    0.6150132348065063 Al
   0.1245046035916514    0.2515431980238459    0.8650132348065063 Al
   0.1221198719603971    0.5042599512797686    0.1277127399031650 Al
   0.1221198719603971    0.5042599512797686    0.3777127399031650 Al
   0.1221198719603971    0.5042599512797686    0.6277127399031649 Al
   0.1221198719603971    0.5042599512797686    0.8777127399031649 Al
   0.1221545455411234    0.7577915090168810    0.1298657101387133 Al
   0.1221545455411234    0.7577915090168810    0.3798657101387133 Al
   0.1221545455411234    0.7577915090168810    0.6298657101387132 Al
   0.1221545455411234    0.7577915090168810    0.8798657101387133 Al
   0.3715040479242630   -0.0030068806298625    0.1181965388998030 Al
   0.3715040479242630   -0.0030068806298625    0.3681965388998030 Al
   0.3715040479242630   -0.0030068806298625    0.6181965388998030 Al
   0.3715040479242630   -0.0030068806298625    0.8681965388998031 Al
   0.3682079945497348    0.2459177609877087    0.1083807694471264 Al
   0.3682079945497348    0.2459177609877087    0.3583807694471264 Al
   0.3682079945497348    0.2459177609877087    0.6083807694471264 Al
   0.3682079945497348    0.2459177609877087    0.8583807694471264 Al
   0.3733974441905054    0.5271140541918086    0.1520946429852044 Al
   0.3733974441905054    0.5271140541918086    0.4020946429852045 Al
   0.3733974441905054    0.5271140541918086    0.6520946429852044 Al
   0.3733974441905054    0.5271140541918086    0.9020946429852045 Al
   0.3772348488537726    0.7585352761184541    0.1322961571187455 Al
   0.3772348488537726    0.7585352761184541    0.3822961571187455 Al
   0.3772348488537726    0.7585352761184541    0.6322961571187454 Al
   0.3772348488537726    0.7585352761184541    0.8822961571187455 Al
   0.6251032829535348   -0.0072288913460030    0.1205433474784862 Al
   0.6251032829535348   -0.0072288913460030    0.3705433474784862 Al
   0.6251032829535348   -0.0072288913460030    0.6205433474784862 Al
   0.6251032829535348   -0.0072288913460030    0.8705433474784862 Al
   0.6292608150070377    0.2370339765696900    0.1169263277232625 Al
   0.6292608150070377    0.2370339765696900    0.3669263277232624 Al
   0.6292608150070377    0.2370339765696900    0.6169263277232624 Al
   0.6292608150070377    0.2370339765696900    0.8669263277232625 Al
   0.6250168417134923    0.4973406464773523    0.1398945250317105 Al
   0.6250168417134923    0.4973406464773523    0.3898945250317105 Al
   0.6250168417134923    0.4973406464773523    0.6398945250317104 Al
   0.6250168417134923    0.4973406464773523    0.8898945250317105 Al
   0.6286584083472978    0.7496711478785217    0.1358697446380638 Al
   0.6286584083472978    0.7496711478785217    0.3858697446380638 Al
   0.6286584083472978    0.7496711478785217    0.6358697446380637 Al
   0.6286584083472978    0.7496711478785217    0.8858697446380638 Al
   0.8770866990849454   -0.0055589798153391    0.1215187263063655 Al
   0.8770866990849454   -0.0055589798153391    0.3715187263063655 Al
   0.8770866990849454   -0.0055589798153391    0.6215187263063654 Al
   0.8770866990849454   -0.0055589798153391    0.8715187263063655 Al
   0.8778072354954987    0.2455215720162994    0.1214993866387320 Al
   0.8778072354954987    0.2455215720162994    0.3714993866387321 Al
   0.8778072354954987    0.2455215720162994    0.6214993866387319 Al
   0.8778072354954987    0.2455215720162994    0.8714993866387321 Al
   0.8751853054163635    0.4988209904161235    0.1280252537405945 Al
   0.8751853054163635    0.4988209904161235    0.3780252537405945 Al
   0.8751853054163635    0.4988209904161235    0.6280252537405945 Al
   0.8751853054163635    0.4988209904161235    0.8780252537405945 Al
   0.8755671727445744    0.7489097481345423    0.1321689178358517 Al
   0.8755671727445744    0.7489097481345423    0.3821689178358517 Al
   0.8755671727445744    0.7489097481345423    0.6321689178358516 Al
   0.8755671727445744    0.7489097481345423    0.8821689178358516 Al
   0.1233245336742348    0.1262503325524025   -0.0093866309233550 Al
   0.1233245336742348    0.1262503325524025    0.2406133690766450 Al
   0.1233245336742348    0.1262503325524025    0.4906133690766449 Al
   0.1233245336742348    0.1262503325524025    0.7406133690766450 Al
   0.1249843644742778    0.3765315758508815   -0.0056085034684900 Al
   0.1249843644742778    0.3765315758508815    0.2443914965315100 Al
   0.1249843644742778    0.3765315758508815    0.4943914965315099 Al
   0.1249843644742778    0.3765315758508815    0.7443914965315099 Al
   0.1209725438585039    0.6325025070758434    0.0054639126436490 Al
   0.1209725438585039    0.6325025070758434    0.2554639126436490 Al
   0.1209725438585039    0.6325025070758434    0.5054639126436490 Al
   0.1209725438585039    0.6325025070758434    0.7554639126436491 Al
   0.1234215285746869    0.8817879473795045    0.0039553855228595 Al
   0.1234215285746869    0.8817879473795045    0.2539553855228595 Al
   0.1234215285746869    0.8817879473795045    0.5039553855228595 Al
   0.1234215285746869    0.8817879473795045    0.7539553855228595 Al
   0.3702519690580974    0.1214910880578060   -0.0098093392068756 Al
   0.3702519690580974    0.1214910880578060    0.2401906607931244 Al
   0.3702519690580974    0.1214910880578060    0.4901906607931244 Al
   0.3702519690580974    0.1214910880578060    0.7401906607931245 Al
   0.3670238820735255    0.3670432932801296   -0.0366733167211736 Al
   0.3670238820735255    0.3670432932801296    0.2133266832788264 Al
   0.3670238820735255    0.3670432932801296    0.4633266832788264 Al
   0.3670238820735255    0.3670432932801296    0.7133266832788265 Al
   0.3767097527907464    0.6392467443313288    0.0115369778933549 Al
   0.3767097527907464    0.6392467443313288    0.2615369778933548 Al
   0.3767097527907464    0.6392467443313288    0.5115369778933548 Al
   0.3767097527907464    0.6392467443313288    0.7615369778933548 Al
   0.3770674014370007    0.8808639819073352    0.0053749104614607 Al
   0.3770674014370007    0.8808639819073352    0.2553749104614607 Al
   0.3770674014370007    0.8808639819073352    0.5053749104614607 Al
   0.3770674014370007    0.8808639819073352    0.7553749104614607 Al
   0.6264035440621415    0.1152049473025994   -0.0058077922286243 Al
   0.6264035440621415    0.1152049473025994    0.2441922077713757 Al
   0.6264035440621415    0.1152049473025994    0.4941922077713757 Al
   0.6264035440621415    0.1152049473025994    0.7441922077713756 Al
   0.6317265162166736    0.3641726376623156   -0.0081511671015444 Al
   0.6317265162166736    0.3641726376623156    0.2418488328984555 Al
   0.6317265162166736    0.3641726376623156    0.4918488328984556 Al
   0.6317265162166736    0.3641726376623156    0.7418488328984556 Al
   0.6281122481899356    0.6232198970363632    0.0154467354737109 Al
   0.6281122481899356    0.6232198970363632    0.2654467354737109 Al
   0.6281122481899356    0.6232198970363632    0.5154467354737110 Al
   0.6281122481899356    0.6232198970363632    0.7654467354737109 Al
   0.6282648547544741    0.8754926159299850    0.0078247902295228 Al
   0.6282648547544741    0.8754926159299850    0.2578247902295229 Al
   0.6282648547544741    0.8754926159299850    0.5078247902295229 Al
   0.6282648547544741    0.8754926159299850    0.7578247902295229 Al
   0.8777383586925396    0.1194791889912300   -0.0038633863987378 Al
   0.8777383586925396    0.1194791889912300    0.2461366136012622 Al
   0.8777383586925396    0.1194791889912300    0.4961366136012623 Al
   0.8777383586925396    0.1194791889912300    0.7461366136012623 Al
   0.8766708873585402    0.3724666240340692   -0.0011690609656909 Al
   0.8766708873585402    0.3724666240340692    0.2488309390343091 Al
   0.8766708873585402    0.3724666240340692    0.4988309390343091 Al
   0.8766708873585402    0.3724666240340692    0.7488309390343092 Al
   0.8749472572050452    0.6239694425826127    0.0062551060618119 Al
   0.8749472572050452    0.6239694425826127    0.2562551060618119 Al
   0.8749472572050452    0.6239694425826127    0.5062551060618119 Al
   0.8749472572050452    0.6239694425826127    0.7562551060618119 Al
   0.8761544292557176    0.8740767231340130    0.0067224020342975 Al
   0.8761544292557176    0.8740767231340130    0.2567224020342975 Al
   0.8761544292557176    0.8740767231340130    0.5067224020342975 Al
   0.8761544292557176    0.8740767231340130    0.7567224020342976 Al
