Al4
1.0
       16.1557178497         0.0000000000         0.0000000000
        0.0000000000        16.1557178497         0.0000000000
        0.0000000000         0.0000000000        16.1557178497
   Al
  256
Direct
     0.000000000         0.000000000         0.000000000
     0.000000000         0.000000000         0.250000000
     0.000000000         0.000000000         0.500000000
     0.000000000         0.000000000         0.750000000
     0.000000000         0.250000000         0.000000000
     0.000000000         0.250000000         0.250000000
     0.000000000         0.250000000         0.500000000
     0.000000000         0.250000000         0.750000000
     0.000000000         0.500000000         0.000000000
     0.000000000         0.500000000         0.250000000
     0.000000000         0.500000000         0.500000000
     0.000000000         0.500000000         0.750000000
     0.000000000         0.750000000         0.000000000
     0.000000000         0.750000000         0.250000000
     0.000000000         0.750000000         0.500000000
     0.000000000         0.750000000         0.750000000
     0.250000000         0.000000000         0.000000000
     0.250000000         0.000000000         0.250000000
     0.250000000         0.000000000         0.500000000
     0.250000000         0.000000000         0.750000000
     0.250000000         0.250000000         0.000000000
     0.250000000         0.250000000         0.250000000
     0.250000000         0.250000000         0.500000000
     0.250000000         0.250000000         0.750000000
     0.250000000         0.500000000         0.000000000
     0.250000000         0.500000000         0.250000000
     0.250000000         0.500000000         0.500000000
     0.250000000         0.500000000         0.750000000
     0.250000000         0.750000000         0.000000000
     0.250000000         0.750000000         0.250000000
     0.250000000         0.750000000         0.500000000
     0.250000000         0.750000000         0.750000000
     0.500000000         0.000000000         0.000000000
     0.500000000         0.000000000         0.250000000
     0.500000000         0.000000000         0.500000000
     0.500000000         0.000000000         0.750000000
     0.500000000         0.250000000         0.000000000
     0.500000000         0.250000000         0.250000000
     0.500000000         0.250000000         0.500000000
     0.500000000         0.250000000         0.750000000
     0.500000000         0.500000000         0.000000000
     0.500000000         0.500000000         0.250000000
     0.500000000         0.500000000         0.500000000
     0.500000000         0.500000000         0.750000000
     0.500000000         0.750000000         0.000000000
     0.500000000         0.750000000         0.250000000
     0.500000000         0.750000000         0.500000000
     0.500000000         0.750000000         0.750000000
     0.750000000         0.000000000         0.000000000
     0.750000000         0.000000000         0.250000000
     0.750000000         0.000000000         0.500000000
     0.750000000         0.000000000         0.750000000
     0.750000000         0.250000000         0.000000000
     0.750000000         0.250000000         0.250000000
     0.750000000         0.250000000         0.500000000
     0.750000000         0.250000000         0.750000000
     0.750000000         0.500000000         0.000000000
     0.750000000         0.500000000         0.250000000
     0.750000000         0.500000000         0.500000000
     0.750000000         0.500000000         0.750000000
     0.750000000         0.750000000         0.000000000
     0.750000000         0.750000000         0.250000000
     0.750000000         0.750000000         0.500000000
     0.750000000         0.750000000         0.750000000
     0.000000000         0.125000000         0.125000000
     0.000000000         0.125000000         0.375000000
     0.000000000         0.125000000         0.625000000
     0.000000000         0.125000000         0.875000000
     0.000000000         0.375000000         0.125000000
     0.000000000         0.375000000         0.375000000
     0.000000000         0.375000000         0.625000000
     0.000000000         0.375000000         0.875000000
     0.000000000         0.625000000         0.125000000
     0.000000000         0.625000000         0.375000000
     0.000000000         0.625000000         0.625000000
     0.000000000         0.625000000         0.875000000
     0.000000000         0.875000000         0.125000000
     0.000000000         0.875000000         0.375000000
     0.000000000         0.875000000         0.625000000
     0.000000000         0.875000000         0.875000000
     0.250000000         0.125000000         0.125000000
     0.250000000         0.125000000         0.375000000
     0.250000000         0.125000000         0.625000000
     0.250000000         0.125000000         0.875000000
     0.250000000         0.375000000         0.125000000
     0.250000000         0.375000000         0.375000000
     0.250000000         0.375000000         0.625000000
     0.250000000         0.375000000         0.875000000
     0.250000000         0.625000000         0.125000000
     0.250000000         0.625000000         0.375000000
     0.250000000         0.625000000         0.625000000
     0.250000000         0.625000000         0.875000000
     0.250000000         0.875000000         0.125000000
     0.250000000         0.875000000         0.375000000
     0.250000000         0.875000000         0.625000000
     0.250000000         0.875000000         0.875000000
     0.500000000         0.125000000         0.125000000
     0.500000000         0.125000000         0.375000000
     0.500000000         0.125000000         0.625000000
     0.500000000         0.125000000         0.875000000
     0.500000000         0.375000000         0.125000000
     0.500000000         0.375000000         0.375000000
     0.500000000         0.375000000         0.625000000
     0.500000000         0.375000000         0.875000000
     0.500000000         0.625000000         0.125000000
     0.500000000         0.625000000         0.375000000
     0.500000000         0.625000000         0.625000000
     0.500000000         0.625000000         0.875000000
     0.500000000         0.875000000         0.125000000
     0.500000000         0.875000000         0.375000000
     0.500000000         0.875000000         0.625000000
     0.500000000         0.875000000         0.875000000
     0.750000000         0.125000000         0.125000000
     0.750000000         0.125000000         0.375000000
     0.750000000         0.125000000         0.625000000
     0.750000000         0.125000000         0.875000000
     0.750000000         0.375000000         0.125000000
     0.750000000         0.375000000         0.375000000
     0.750000000         0.375000000         0.625000000
     0.750000000         0.375000000         0.875000000
     0.750000000         0.625000000         0.125000000
     0.750000000         0.625000000         0.375000000
     0.750000000         0.625000000         0.625000000
     0.750000000         0.625000000         0.875000000
     0.750000000         0.875000000         0.125000000
     0.750000000         0.875000000         0.375000000
     0.750000000         0.875000000         0.625000000
     0.750000000         0.875000000         0.875000000
     0.125000000         0.000000000         0.125000000
     0.125000000         0.000000000         0.375000000
     0.125000000         0.000000000         0.625000000
     0.125000000         0.000000000         0.875000000
     0.125000000         0.250000000         0.125000000
     0.125000000         0.250000000         0.375000000
     0.125000000         0.250000000         0.625000000
     0.125000000         0.250000000         0.875000000
     0.125000000         0.500000000         0.125000000
     0.125000000         0.500000000         0.375000000
     0.125000000         0.500000000         0.625000000
     0.125000000         0.500000000         0.875000000
     0.125000000         0.750000000         0.125000000
     0.125000000         0.750000000         0.375000000
     0.125000000         0.750000000         0.625000000
     0.125000000         0.750000000         0.875000000
     0.375000000         0.000000000         0.125000000
     0.375000000         0.000000000         0.375000000
     0.375000000         0.000000000         0.625000000
     0.375000000         0.000000000         0.875000000
     0.375000000         0.250000000         0.125000000
     0.375000000         0.250000000         0.375000000
     0.375000000         0.250000000         0.625000000
     0.375000000         0.250000000         0.875000000
     0.375000000         0.500000000         0.125000000
     0.375000000         0.500000000         0.375000000
     0.375000000         0.500000000         0.625000000
     0.375000000         0.500000000         0.875000000
     0.375000000         0.750000000         0.125000000
     0.375000000         0.750000000         0.375000000
     0.375000000         0.750000000         0.625000000
     0.375000000         0.750000000         0.875000000
     0.625000000         0.000000000         0.125000000
     0.625000000         0.000000000         0.375000000
     0.625000000         0.000000000         0.625000000
     0.625000000         0.000000000         0.875000000
     0.625000000         0.250000000         0.125000000
     0.625000000         0.250000000         0.375000000
     0.625000000         0.250000000         0.625000000
     0.625000000         0.250000000         0.875000000
     0.625000000         0.500000000         0.125000000
     0.625000000         0.500000000         0.375000000
     0.625000000         0.500000000         0.625000000
     0.625000000         0.500000000         0.875000000
     0.625000000         0.750000000         0.125000000
     0.625000000         0.750000000         0.375000000
     0.625000000         0.750000000         0.625000000
     0.625000000         0.750000000         0.875000000
     0.875000000         0.000000000         0.125000000
     0.875000000         0.000000000         0.375000000
     0.875000000         0.000000000         0.625000000
     0.875000000         0.000000000         0.875000000
     0.875000000         0.250000000         0.125000000
     0.875000000         0.250000000         0.375000000
     0.875000000         0.250000000         0.625000000
     0.875000000         0.250000000         0.875000000
     0.875000000         0.500000000         0.125000000
     0.875000000         0.500000000         0.375000000
     0.875000000         0.500000000         0.625000000
     0.875000000         0.500000000         0.875000000
     0.875000000         0.750000000         0.125000000
     0.875000000         0.750000000         0.375000000
     0.875000000         0.750000000         0.625000000
     0.875000000         0.750000000         0.875000000
     0.125000000         0.125000000         0.000000000
     0.125000000         0.125000000         0.250000000
     0.125000000         0.125000000         0.500000000
     0.125000000         0.125000000         0.750000000
     0.125000000         0.375000000         0.000000000
     0.125000000         0.375000000         0.250000000
     0.125000000         0.375000000         0.500000000
     0.125000000         0.375000000         0.750000000
     0.125000000         0.625000000         0.000000000
     0.125000000         0.625000000         0.250000000
     0.125000000         0.625000000         0.500000000
     0.125000000         0.625000000         0.750000000
     0.125000000         0.875000000         0.000000000
     0.125000000         0.875000000         0.250000000
     0.125000000         0.875000000         0.500000000
     0.125000000         0.875000000         0.750000000
     0.375000000         0.125000000         0.000000000
     0.375000000         0.125000000         0.250000000
     0.375000000         0.125000000         0.500000000
     0.375000000         0.125000000         0.750000000
     0.375000000         0.375000000         0.000000000
     0.375000000         0.375000000         0.250000000
     0.375000000         0.375000000         0.500000000
     0.375000000         0.375000000         0.750000000
     0.375000000         0.625000000         0.000000000
     0.375000000         0.625000000         0.250000000
     0.375000000         0.625000000         0.500000000
     0.375000000         0.625000000         0.750000000
     0.375000000         0.875000000         0.000000000
     0.375000000         0.875000000         0.250000000
     0.375000000         0.875000000         0.500000000
     0.375000000         0.875000000         0.750000000
     0.625000000         0.125000000         0.000000000
     0.625000000         0.125000000         0.250000000
     0.625000000         0.125000000         0.500000000
     0.625000000         0.125000000         0.750000000
     0.625000000         0.375000000         0.000000000
     0.625000000         0.375000000         0.250000000
     0.625000000         0.375000000         0.500000000
     0.625000000         0.375000000         0.750000000
     0.625000000         0.625000000         0.000000000
     0.625000000         0.625000000         0.250000000
     0.625000000         0.625000000         0.500000000
     0.625000000         0.625000000         0.750000000
     0.625000000         0.875000000         0.000000000
     0.625000000         0.875000000         0.250000000
     0.625000000         0.875000000         0.500000000
     0.625000000         0.875000000         0.750000000
     0.875000000         0.125000000         0.000000000
     0.875000000         0.125000000         0.250000000
     0.875000000         0.125000000         0.500000000
     0.875000000         0.125000000         0.750000000
     0.875000000         0.375000000         0.000000000
     0.875000000         0.375000000         0.250000000
     0.875000000         0.375000000         0.500000000
     0.875000000         0.375000000         0.750000000
     0.875000000         0.625000000         0.000000000
     0.875000000         0.625000000         0.250000000
     0.875000000         0.625000000         0.500000000
     0.875000000         0.625000000         0.750000000
     0.875000000         0.875000000         0.000000000
     0.875000000         0.875000000         0.250000000
     0.875000000         0.875000000         0.500000000
     0.875000000         0.875000000         0.750000000
